instances/shortest_path/discrete_knapsack_uncertainty/nohadani_4_5.lp
\ Model nohadani_4_5
\ LP format - for model browsing. Use MPS format to capture full model detail.
\ Signature: 0x26b3cf7f3313a25f
Minimize
  33.52610922848042 y[0,2] + 31.57530680769389 y[0,3]
   + 42.44997055358225 y[1,2] + 27.73084924772409 y[1,3]
   + 33.52610922848042 y[2,0] + 42.44997055358225 y[2,1]
   + 16.0312195418814 y[2,3] + 31.57530680769389 y[3,0]
   + 27.73084924772409 y[3,1] + 16.0312195418814 y[3,2] + x[0,2] + x[0,3]
   + x[1,2] + x[1,3] + x[2,0] + x[2,1] + x[2,3] + x[3,0] + x[3,1] + x[3,2]
   + 3.352610922848042 r[0,2] + 3.157530680769389 r[0,3]
   + 4.244997055358225 r[1,2] + 2.77308492477241 r[1,3]
   + 3.352610922848042 r[2,0] + 4.244997055358225 r[2,1]
   + 1.60312195418814 r[2,3] + 3.157530680769389 r[3,0]
   + 2.77308492477241 r[3,1] + 1.60312195418814 r[3,2]
Subject To
 flow_cons_inner_nodes[2]: y[0,2] + y[1,2] - y[2,0] - y[2,1] - y[2,3]
   + y[3,2] = 0
 flow_cons_inner_nodes[3]: y[0,3] + y[1,3] + y[2,3] - y[3,0] - y[3,1]
   - y[3,2] = 0
 flow_cons_source: y[0,2] + y[0,3] - y[2,0] - y[3,0] = 1
 flow_cons_target: - y[1,2] - y[1,3] + y[2,1] + y[3,1] = 1
 primal_lower: 1.86825878851872 x[0,2] + 3.178991793938874 x[0,3]
   + 2.155321232603951 x[1,2] + 1.892702318146855 x[1,3]
   + 2.445302223222416 x[2,0] + 1.318030314696666 x[2,1]
   + 5.498222667500701 x[2,3] + 2.84063888735757 x[3,0]
   + 2.635608556507991 x[3,1] + 7.308737713385816 x[3,2] + 52 u[0,2]
   + 29 u[0,3] + 75 u[1,2] + 4 u[1,3] + 29 u[2,0] + 26 u[2,1] + 30 u[2,3]
   + 76 u[3,0] + 6 u[3,1] + 35 u[3,2] <= 76
 mccormick1[0,2]: - u[0,2] + r[0,2] <= 0
 mccormick1[0,3]: - u[0,3] + r[0,3] <= 0
 mccormick1[1,2]: - u[1,2] + r[1,2] <= 0
 mccormick1[1,3]: - u[1,3] + r[1,3] <= 0
 mccormick1[2,0]: - u[2,0] + r[2,0] <= 0
 mccormick1[2,1]: - u[2,1] + r[2,1] <= 0
 mccormick1[2,3]: - u[2,3] + r[2,3] <= 0
 mccormick1[3,0]: - u[3,0] + r[3,0] <= 0
 mccormick1[3,1]: - u[3,1] + r[3,1] <= 0
 mccormick1[3,2]: - u[3,2] + r[3,2] <= 0
 mccormick2[0,2]: - y[0,2] + r[0,2] <= 0
 mccormick2[0,3]: - y[0,3] + r[0,3] <= 0
 mccormick2[1,2]: - y[1,2] + r[1,2] <= 0
 mccormick2[1,3]: - y[1,3] + r[1,3] <= 0
 mccormick2[2,0]: - y[2,0] + r[2,0] <= 0
 mccormick2[2,1]: - y[2,1] + r[2,1] <= 0
 mccormick2[2,3]: - y[2,3] + r[2,3] <= 0
 mccormick2[3,0]: - y[3,0] + r[3,0] <= 0
 mccormick2[3,1]: - y[3,1] + r[3,1] <= 0
 mccormick2[3,2]: - y[3,2] + r[3,2] <= 0
 mccormick3[0,2]: - y[0,2] - u[0,2] + r[0,2] >= -1
 mccormick3[0,3]: - y[0,3] - u[0,3] + r[0,3] >= -1
 mccormick3[1,2]: - y[1,2] - u[1,2] + r[1,2] >= -1
 mccormick3[1,3]: - y[1,3] - u[1,3] + r[1,3] >= -1
 mccormick3[2,0]: - y[2,0] - u[2,0] + r[2,0] >= -1
 mccormick3[2,1]: - y[2,1] - u[2,1] + r[2,1] >= -1
 mccormick3[2,3]: - y[2,3] - u[2,3] + r[2,3] >= -1
 mccormick3[3,0]: - y[3,0] - u[3,0] + r[3,0] >= -1
 mccormick3[3,1]: - y[3,1] - u[3,1] + r[3,1] >= -1
 mccormick3[3,2]: - y[3,2] - u[3,2] + r[3,2] >= -1
Bounds
Binaries
 y[0,2] y[0,3] y[1,2] y[1,3] y[2,0] y[2,1] y[2,3] y[3,0] y[3,1] y[3,2]
 x[0,2] x[0,3] x[1,2] x[1,3] x[2,0] x[2,1] x[2,3] x[3,0] x[3,1] x[3,2]
 u[0,2] u[0,3] u[1,2] u[1,3] u[2,0] u[2,1] u[2,3] u[3,0] u[3,1] u[3,2]
 r[0,2] r[0,3] r[1,2] r[1,3] r[2,0] r[2,1] r[2,3] r[3,0] r[3,1] r[3,2]
End
