instances/shortest_path/discrete_knapsack_uncertainty/nohadani_4_5.kp
83567
76

[1.8682587885187198 3.1789917939388737 2.155321232603951 1.892702318146855 2.4453022232224164 1.318030314696666 5.498222667500701 2.8406388873575703 2.635608556507991 7.308737713385816]

[52 29 75 4 29 26 30 76 6 35]
